minimize
obj: x119
subject to
c1_1: 1 x1 >= 0
c2: 1 x2 >= 0
c3: 1 x3 >= 0
c4: 1 x4 >= 0
c5: 1 x5 >= 0
c6: 1 x6 >= 0
c7: 1 x7 >= 0
c8: 1 x8 >= 0
c9: 1 x9 >= 0
c10: 1 x10 >= 0
c11: 1 x11 >= 0
c12: 1 x12 >= 0
c13: 1 x13 >= 0
c14: 1 x14 >= 0
c15: 1 x15 >= 0
c16: 1 x16 >= 0
c17: 1 x17 >= 0
c18: 1 x18 >= 0
c19: 1 x19 >= 0
c20: 1 x20 >= 0
c21: 1 x21 >= 0
c22: 1 x22 >= 0
c23: 1 x23 >= 0
c24: 1 x24 >= 0
c25: 1 x25 >= 0
c26: 1 x26 >= 0
c27: 1 x27 >= 0
c28: 1 x28 >= 0
c29: 1 x29 >= 0
c30: 1 x30 >= 0
c31: 1 x31 >= 0
c32: 1 x32 >= 0
c33: 1 x33 >= 0
c34: 1 x34 >= 0
c35: 1 x35 >= 0
c36: 1 x36 >= 0
c37: 1 x37 >= 0
c38: 1 x38 >= 0
c39: 1 x39 >= 0
c40: 1 x40 >= 0
c41: 1 x41 >= 0
c42: 1 x42 >= 0
c43: 1 x43 >= 0
c44: 1 x44 >= 0
c45: 1 x45 >= 0
c46: 1 x46 >= 0
c47: 1 x47 >= 0
c48: 1 x48 >= 0
c49: 1 x49 >= 0
c50: 1 x50 >= 0
c51: 1 x51 >= 0
c52: 1 x52 >= 0
c53: 1 x53 >= 0
c54: 1 x54 >= 0
c55: 1 x55 >= 0
c56: 1 x56 >= 0
c57: 1 x57 >= 0
c58: 1 x58 >= 0
c59: 1 x59 >= 0
c60: 1 x60 >= 0
c61: 1 x61 >= 0
c62: 1 x62 >= 0
c63: 1 x63 >= 0
c64: 1 x64 >= 0
c65: 1 x65 >= 0
c66: 1 x66 >= 0
c67: 1 x67 >= 0
c68: 1 x68 >= 0
c69: 1 x69 >= 0
c70: 1 x70 >= 0
c71: 1 x71 >= 0
c72: 1 x72 >= 0
c73: 1 x73 >= 0
c74: 1 x74 >= 0
c75: 1 x75 >= 0
c76: 1 x76 >= 0
c77: 1 x77 >= 0
c78: 1 x78 >= 0
c79: 1 x79 >= 0
c80: 1 x80 >= 0
c81: 1 x81 >= 0
c82: 1 x82 >= 0
c83: 1 x83 >= 0
c84: 1 x84 >= 0
c85: 1 x85 >= 0
c86: 1 x86 >= 0
c87: 1 x87 >= 0
c88: 1 x88 >= 0
c89: 1 x89 >= 0
c90: 1 x90 >= 0
c91: 1 x91 >= 0
c92: 1 x92 >= 0
c93: 1 x93 >= 0
c94: 1 x94 >= 0
c95: 1 x95 >= 0
c96: 1 x96 >= 0
c97: 1 x97 >= 0
c98: 1 x98 >= 0
c99: 1 x99 >= 0
c100: 1 x100 >= 0
c101: 1 x101 >= 0
c102: 1 x102 >= 0
c103: 1 x103 >= 0
c104: 1 x104 >= 0
c105: 1 x105 >= 0
c106: 1 x106 >= 0
c107: 1 x107 >= 0
c108: 1 x108 >= 0
c109: 1 x109 >= 0
c110: 1 x110 >= 0
c111: 1 x111 >= 0
c112: 1 x112 >= 0
c113: 1 x113 >= 0
c114: 1 x114 >= 0
c115: 1 x115 >= 0
c116: 1 x116 >= 0
c117: 1 x117 >= 0
c118: 1 x118 >= 0
c119: 1 x24 >= 1
c120: 1 x23 >= 1
c121: 1 x79 >= 1
c122: 1 x80 >= 1
c123: 1 x103 >= 1
c124: 1 x104 >= 1
c125: 1 x1 >= 1
c126: 1 x2 >= 1
c127: 1 x3 >= 1
c128: 1 x4 >= 1
c129:  >= 2
c130: 1 x1 + 1 x2 + 1 x3 + 1 x4 + 1 x5 + 1 x6 + 1 x7 + 1 x8 + 1 x9 + 1 x10 + 1 x11 + 1 x12 + 1 x13 + 1 x14 + 1 x15 + 1 x16 + 1 x17 + 1 x18 + 1 x19 + 1 x20 + 1 x21 + 1 x22 >= 2
c131: 1 x1 + 1 x2 + 1 x3 + 1 x4 + 1 x53 + 1 x54 + 1 x55 + 1 x56 + 1 x57 + 1 x58 + 1 x77 + 1 x78 + 1 x79 + 1 x80 + 1 x81 + 1 x82 + 1 x101 + 1 x102 + 1 x103 + 1 x104 + 1 x105 + 1 x106 >= 2
c132: 1 x13 + 1 x14 + 1 x19 + 1 x20 + 1 x23 + 1 x24 + 1 x37 + 1 x38 + 1 x43 + 1 x44 + 1 x73 + 1 x74 + 1 x79 + 1 x80 + 1 x93 + 1 x94 + 1 x97 + 1 x98 + 1 x103 + 1 x104 + 1 x117 + 1 x118 >= 2
c133: 1 x3 + 1 x6 + 1 x9 + 1 x17 + 1 x19 + 1 x24 + 1 x27 + 1 x30 + 1 x33 + 1 x41 + 1 x43 + 1 x48 + 1 x51 + 1 x54 + 1 x57 + 1 x65 + 1 x67 + 1 x95 + 1 x97 + 1 x101 + 1 x103 + 1 x107 + 1 x109 >= 1
c134: 1 x4 + 1 x5 + 1 x10 + 1 x18 + 1 x20 + 1 x23 + 1 x28 + 1 x29 + 1 x34 + 1 x42 + 1 x44 + 1 x47 + 1 x52 + 1 x53 + 1 x58 + 1 x66 + 1 x68 + 1 x96 + 1 x98 + 1 x102 + 1 x104 + 1 x108 + 1 x110 >= 1
c135: 1 x1 + 1 x5 + 1 x7 + 1 x11 + 1 x13 + 1 x23 + 1 x25 + 1 x29 + 1 x31 + 1 x35 + 1 x37 + 1 x47 + 1 x49 + 1 x53 + 1 x55 + 1 x59 + 1 x61 + 1 x71 + 1 x73 + 1 x77 + 1 x79 + 1 x83 + 1 x85 >= 1
c136: 1 x2 + 1 x6 + 1 x8 + 1 x12 + 1 x14 + 1 x24 + 1 x26 + 1 x30 + 1 x32 + 1 x36 + 1 x38 + 1 x48 + 1 x50 + 1 x54 + 1 x56 + 1 x60 + 1 x62 + 1 x72 + 1 x74 + 1 x78 + 1 x80 + 1 x84 + 1 x86 >= 1
c137: 1 x14 >= 1
c138: 1 x20 >= 1
c139: 1 x13 >= 1
c140: 1 x19 >= 1
c141: 1 x6 >= 1
c142: 1 x5 >= 1
c143: 1 x54 >= 1
c144: 1 x53 >= 1
c1: 1 x1 + 1 x2 + 1 x3 + 1 x4 + 1 x5 + 1 x6 + 1 x7 + 1 x8 + 1 x9 + 1 x10 + 1 x11 + 1 x12 + 1 x13 + 1 x14 + 1 x15 + 1 x16 + 1 x17 + 1 x18 + 1 x19 + 1 x20 + 1 x21 + 1 x22 + 1 x23 + 1 x24 + 1 x25 + 1 x26 + 1 x27 + 1 x28 + 1 x29 + 1 x30 + 1 x31 + 1 x32 + 1 x33 + 1 x34 + 1 x35 + 1 x36 + 1 x37 + 1 x38 + 1 x39 + 1 x40 + 1 x41 + 1 x42 + 1 x43 + 1 x44 + 1 x45 + 1 x46 + 1 x47 + 1 x48 + 1 x49 + 1 x50 + 1 x51 + 1 x52 + 1 x53 + 1 x54 + 1 x55 + 1 x56 + 1 x57 + 1 x58 + 1 x59 + 1 x60 + 1 x61 + 1 x62 + 1 x63 + 1 x64 + 1 x65 + 1 x66 + 1 x67 + 1 x68 + 1 x69 + 1 x70 + 1 x71 + 1 x72 + 1 x73 + 1 x74 + 1 x75 + 1 x76 + 1 x77 + 1 x78 + 1 x79 + 1 x80 + 1 x81 + 1 x82 + 1 x83 + 1 x84 + 1 x85 + 1 x86 + 1 x87 + 1 x88 + 1 x89 + 1 x90 + 1 x91 + 1 x92 + 1 x93 + 1 x94 + 1 x95 + 1 x96 + 1 x97 + 1 x98 + 1 x99 + 1 x100 + 1 x101 + 1 x102 + 1 x103 + 1 x104 + 1 x105 + 1 x106 + 1 x107 + 1 x108 + 1 x109 + 1 x110 + 1 x111 + 1 x112 + 1 x113 + 1 x114 + 1 x115 + 1 x116 + 1 x117 + 1 x118 - 1 x119 = 0
Bounds
x1 free
x2 free
x3 free
x4 free
x5 free
x6 free
x7 free
x8 free
x9 free
x10 free
x11 free
x12 free
x13 free
x14 free
x15 free
x16 free
x17 free
x18 free
x19 free
x20 free
x21 free
x22 free
x23 free
x24 free
x25 free
x26 free
x27 free
x28 free
x29 free
x30 free
x31 free
x32 free
x33 free
x34 free
x35 free
x36 free
x37 free
x38 free
x39 free
x40 free
x41 free
x42 free
x43 free
x44 free
x45 free
x46 free
x47 free
x48 free
x49 free
x50 free
x51 free
x52 free
x53 free
x54 free
x55 free
x56 free
x57 free
x58 free
x59 free
x60 free
x61 free
x62 free
x63 free
x64 free
x65 free
x66 free
x67 free
x68 free
x69 free
x70 free
x71 free
x72 free
x73 free
x74 free
x75 free
x76 free
x77 free
x78 free
x79 free
x80 free
x81 free
x82 free
x83 free
x84 free
x85 free
x86 free
x87 free
x88 free
x89 free
x90 free
x91 free
x92 free
x93 free
x94 free
x95 free
x96 free
x97 free
x98 free
x99 free
x100 free
x101 free
x102 free
x103 free
x104 free
x105 free
x106 free
x107 free
x108 free
x109 free
x110 free
x111 free
x112 free
x113 free
x114 free
x115 free
x116 free
x117 free
x118 free
x119 free
General
x1
x2
x3
x4
x5
x6
x7
x8
x9
x10
x11
x12
x13
x14
x15
x16
x17
x18
x19
x20
x21
x22
x23
x24
x25
x26
x27
x28
x29
x30
x31
x32
x33
x34
x35
x36
x37
x38
x39
x40
x41
x42
x43
x44
x45
x46
x47
x48
x49
x50
x51
x52
x53
x54
x55
x56
x57
x58
x59
x60
x61
x62
x63
x64
x65
x66
x67
x68
x69
x70
x71
x72
x73
x74
x75
x76
x77
x78
x79
x80
x81
x82
x83
x84
x85
x86
x87
x88
x89
x90
x91
x92
x93
x94
x95
x96
x97
x98
x99
x100
x101
x102
x103
x104
x105
x106
x107
x108
x109
x110
x111
x112
x113
x114
x115
x116
x117
x118
End
